commons/LK_FILES/br17-4-25.tsp
NAME: br17-4-25
TYPE: TSP
COMMENT: TSP
DIMENSION: 10
EDGE_WEIGHT_TYPE: EXPLICIT
EDGE_WEIGHT_FORMAT: FULL_MATRIX
EDGE_WEIGHT_SECTION
9999 5 8 3 3 5 48 3 8 3 
5 9999 8 5 5 26 12 5 8 5 
8 8 9999 8 8 50 6 8 0 8 
3 5 8 9999 0 3 48 0 8 0 
3 5 8 0 9999 3 48 0 8 0 
5 24 48 3 3 9999 72 3 48 3 
48 12 6 48 48 74 9999 48 6 48 
3 5 8 0 0 3 48 9999 8 0 
8 8 0 8 8 50 6 8 9999 8 
3 5 8 0 0 3 48 0 8 9999 
EOF
